C = [15, 25, 23];
CAP = [1000, 300, 500];
m = 5;
n = 7;
d = [|
110,  130,  150,  380,  420,  170,  220|
130,  200,  180,  320,  450,  130,  290|
160,  140,  140,  360,  480,  180,  270|
190,  170,  120,  350,  520,  110,  260|
170,  1150,  140,  400,  80,  190,  150|];

    
Vmin = 0.5;
precio = [35, 32, 42, 51, 32];
